\Problem name: ClpDefaultName

Minimize
OBJROW: -7.25845 f_t_0 -5.26781 f_t_1 -5.86630 f_t_2 -8.96268 f_t_3 -7.37164 f_t_4 -4.47244 f_t_5 -1.28660 f_t_6 -9.05178 f_t_7 -6.38248 f_t_8 -8.21219 f_t_9
Subject To
R0000000:  -0.10995 x_t_9_a_0 -0.13625 x_t_9_a_6 -0.74775 restored_x_t_9_a_6_4 + f_t_9 <= 8.21219
R0000000_low: -0.10995 x_t_9_a_0 -0.13625 x_t_9_a_6 -0.74775 restored_x_t_9_a_6_4 + f_t_9 >= 0
R0000001:  -0.34368 x_t_9_a_5 + x_t_9_a_7 -0.86963 restored_x_t_9_a_5_9 + restored_x_t_9_a_7_7 <= 1.28660
R0000001_low: -0.34368 x_t_9_a_5 + x_t_9_a_7 -0.86963 restored_x_t_9_a_5_9 + restored_x_t_9_a_7_7 >= 0
R0000002:  -0.63375 x_t_9_a_2 + x_t_9_a_6 -0.67119 restored_x_t_9_a_2_0 + restored_x_t_9_a_6_4 <= 12.03791
R0000002_low: -0.63375 x_t_9_a_2 + x_t_9_a_6 -0.67119 restored_x_t_9_a_2_0 + restored_x_t_9_a_6_4 >= 0
R0000003:  x_t_9_a_3 + x_t_9_a_4 + x_t_9_a_5 + restored_x_t_9_a_5_9 + restored_x_t_9_a_3_2 <= 5.86630
R0000003_low: x_t_9_a_3 + x_t_9_a_4 + x_t_9_a_5 + restored_x_t_9_a_5_9 + restored_x_t_9_a_3_2 >= 0
R0000004:  -0.98667 x_t_9_a_1 + x_t_9_a_2 + restored_x_t_9_a_2_0 <= 9.02790
R0000004_low: -0.98667 x_t_9_a_1 + x_t_9_a_2 + restored_x_t_9_a_2_0 >= 0
R0000005:  x_t_9_a_0 + x_t_9_a_1 -0.13257 x_t_9_a_3 -0.42735 x_t_9_a_4 -0.57227 x_t_9_a_7 -0.52521 restored_x_t_9_a_3_2 -0.93510 restored_x_t_9_a_7_7 <= 19.82980
R0000005_low: x_t_9_a_0 + x_t_9_a_1 -0.13257 x_t_9_a_3 -0.42735 x_t_9_a_4 -0.57227 x_t_9_a_7 -0.52521 restored_x_t_9_a_3_2 -0.93510 restored_x_t_9_a_7_7 >= 0
R0000006:  - restored_x_t_9_a_2_0 + 34.83217 y_0 >= 0
R0000007:  - restored_x_t_9_a_5_9 + 5.92496 y_9 >= 0
R0000008:  - restored_x_t_9_a_3_2 + 5.92496 y_2 >= 0
R0000009:  - restored_x_t_9_a_7_7 + 6.45197 y_7 >= 0
R0000010:  - restored_x_t_9_a_6_4 + 35.53741 y_4 >= 0
R0000011:  -0.43704 x_t_8_a_1 -0.82648 x_t_8_a_3 -0.58525 x_t_8_a_5 -0.95630 restored_x_t_8_a_5_7 + f_t_8 <= 28.83855
R0000011_low: -0.43704 x_t_8_a_1 -0.82648 x_t_8_a_3 -0.58525 x_t_8_a_5 -0.95630 restored_x_t_8_a_5_7 + f_t_8 >= 0
R0000012:  -0.34368 x_t_8_a_2 -0.69332 x_t_8_a_4 + x_t_8_a_5 -0.86963 restored_x_t_8_a_2_9 -0.87673 restored_x_t_8_a_4_8 + restored_x_t_8_a_5_7 <= 1.28660
R0000012_low: -0.34368 x_t_8_a_2 -0.69332 x_t_8_a_4 + x_t_8_a_5 -0.86963 restored_x_t_8_a_2_9 -0.87673 restored_x_t_8_a_4_8 + restored_x_t_8_a_5_7 >= 0
R0000013:  -0.15437 x_t_8_a_0 + x_t_8_a_3 + x_t_8_a_4 + restored_x_t_8_a_4_8 -0.61160 restored_x_t_8_a_0_2 <= 7.37164
R0000013_low: -0.15437 x_t_8_a_0 + x_t_8_a_3 + x_t_8_a_4 + restored_x_t_8_a_4_8 -0.61160 restored_x_t_8_a_0_2 >= 0
R0000014:  x_t_8_a_0 + x_t_8_a_1 + x_t_8_a_2 + restored_x_t_8_a_2_9 + restored_x_t_8_a_0_2 <= 5.86630
R0000014_low: x_t_8_a_0 + x_t_8_a_1 + x_t_8_a_2 + restored_x_t_8_a_2_9 + restored_x_t_8_a_0_2 >= 0
R0000015:  - restored_x_t_8_a_2_9 + 5.92496 y_9 >= 0
R0000016:  - restored_x_t_8_a_4_8 + 11.06908 y_8 >= 0
R0000017:  - restored_x_t_8_a_0_2 + 5.92496 y_2 >= 0
R0000018:  - restored_x_t_8_a_5_7 + 12.97955 y_7 >= 0
R0000019:  -0.23070 x_t_7_a_0 -0.42694 x_t_7_a_1 -0.33786 x_t_7_a_2 -0.46047 x_t_7_a_3 -0.55207 restored_x_t_7_a_2_7 -0.52752 restored_x_t_7_a_0_5 + f_t_7 <= 29.01861
R0000019_low: -0.23070 x_t_7_a_0 -0.42694 x_t_7_a_1 -0.33786 x_t_7_a_2 -0.46047 x_t_7_a_3 -0.55207 restored_x_t_7_a_2_7 -0.52752 restored_x_t_7_a_0_5 + f_t_7 >= 0
R0000020:  x_t_7_a_2 + x_t_7_a_3 + restored_x_t_7_a_2_7 <= 1.28660
R0000020_low: x_t_7_a_2 + x_t_7_a_3 + restored_x_t_7_a_2_7 >= 0
R0000021:  x_t_7_a_0 + x_t_7_a_1 + restored_x_t_7_a_0_5 <= 5.26781
R0000021_low: x_t_7_a_0 + x_t_7_a_1 + restored_x_t_7_a_0_5 >= 0
R0000022:  - restored_x_t_7_a_2_7 + 1.29947 y_7 >= 0
R0000023:  - restored_x_t_7_a_0_5 + 5.32049 y_5 >= 0
R0000024:  -0.43704 x_t_6_a_1 -0.28911 x_t_6_a_6 + x_t_6_a_7 + restored_x_t_6_a_7_6 <= 26.22161
R0000024_low: -0.43704 x_t_6_a_1 -0.28911 x_t_6_a_6 + x_t_6_a_7 + restored_x_t_6_a_7_6 >= 0
R0000025:  x_t_6_a_5 + x_t_6_a_6 <= 9.05178
R0000025_low: x_t_6_a_5 + x_t_6_a_6 >= 0
R0000026:  -0.34368 x_t_6_a_2 -0.69332 x_t_6_a_4 -0.80882 x_t_6_a_7 -0.86963 restored_x_t_6_a_2_9 -0.87673 restored_x_t_6_a_4_8 -0.81491 restored_x_t_6_a_7_6 + f_t_6 <= 1.28660
R0000026_low: -0.34368 x_t_6_a_2 -0.69332 x_t_6_a_4 -0.80882 x_t_6_a_7 -0.86963 restored_x_t_6_a_2_9 -0.87673 restored_x_t_6_a_4_8 -0.81491 restored_x_t_6_a_7_6 + f_t_6 >= 0
R0000027:  -0.15437 x_t_6_a_0 + x_t_6_a_3 + x_t_6_a_4 + restored_x_t_6_a_4_8 -0.61160 restored_x_t_6_a_0_2 + restored_x_t_6_a_3_3 <= 7.37164
R0000027_low: -0.15437 x_t_6_a_0 + x_t_6_a_3 + x_t_6_a_4 + restored_x_t_6_a_4_8 -0.61160 restored_x_t_6_a_0_2 + restored_x_t_6_a_3_3 >= 0
R0000028:  x_t_6_a_0 + x_t_6_a_1 + x_t_6_a_2 -0.16420 x_t_6_a_3 -0.34344 x_t_6_a_5 + restored_x_t_6_a_2_9 + restored_x_t_6_a_0_2 -0.90367 restored_x_t_6_a_3_3 <= 5.86630
R0000028_low: x_t_6_a_0 + x_t_6_a_1 + x_t_6_a_2 -0.16420 x_t_6_a_3 -0.34344 x_t_6_a_5 + restored_x_t_6_a_2_9 + restored_x_t_6_a_0_2 -0.90367 restored_x_t_6_a_3_3 >= 0
R0000029:  - restored_x_t_6_a_2_9 + 15.79293 y_9 >= 0
R0000030:  - restored_x_t_6_a_4_8 + 12.98941 y_8 >= 0
R0000031:  - restored_x_t_6_a_0_2 + 15.79293 y_2 >= 0
R0000032:  - restored_x_t_6_a_3_3 + 12.98941 y_3 >= 0
R0000033:  - restored_x_t_6_a_7_6 + 34.65681 y_6 >= 0
R0000034:  -0.34368 x_t_5_a_3 + x_t_5_a_4 -0.86963 restored_x_t_5_a_3_9 + restored_x_t_5_a_4_7 <= 1.28660
R0000034_low: -0.34368 x_t_5_a_3 + x_t_5_a_4 -0.86963 restored_x_t_5_a_3_9 + restored_x_t_5_a_4_7 >= 0
R0000035:  -0.92170 x_t_5_a_0 -0.97615 restored_x_t_5_a_0_0 + f_t_5 <= 4.47244
R0000035_low: -0.92170 x_t_5_a_0 -0.97615 restored_x_t_5_a_0_0 + f_t_5 >= 0
R0000036:  x_t_5_a_1 + x_t_5_a_2 + x_t_5_a_3 + restored_x_t_5_a_3_9 + restored_x_t_5_a_1_2 <= 5.86630
R0000036_low: x_t_5_a_1 + x_t_5_a_2 + x_t_5_a_3 + restored_x_t_5_a_3_9 + restored_x_t_5_a_1_2 >= 0
R0000037:  x_t_5_a_0 -0.13080 x_t_5_a_1 -0.42165 x_t_5_a_2 -0.56464 x_t_5_a_4 + restored_x_t_5_a_0_0 -0.51821 restored_x_t_5_a_1_2 -0.92264 restored_x_t_5_a_4_7 <= 35.56874
R0000037_low: x_t_5_a_0 -0.13080 x_t_5_a_1 -0.42165 x_t_5_a_2 -0.56464 x_t_5_a_4 + restored_x_t_5_a_0_0 -0.51821 restored_x_t_5_a_1_2 -0.92264 restored_x_t_5_a_4_7 >= 0
R0000038:  - restored_x_t_5_a_0_0 + 41.87724 y_0 >= 0
R0000039:  - restored_x_t_5_a_3_9 + 5.92496 y_9 >= 0
R0000040:  - restored_x_t_5_a_1_2 + 5.92496 y_2 >= 0
R0000041:  - restored_x_t_5_a_4_7 + 6.45197 y_7 >= 0
R0000042:  x_t_4_a_3 + x_t_4_a_4 <= 9.05178
R0000042_low: x_t_4_a_3 + x_t_4_a_4 >= 0
R0000043:  -0.15437 x_t_4_a_0 -0.23897 x_t_4_a_1 -0.20349 x_t_4_a_2 -0.16798 x_t_4_a_4 -0.51490 restored_x_t_4_a_2_9 -0.61160 restored_x_t_4_a_0_2 + f_t_4 <= 22.83571
R0000043_low: -0.15437 x_t_4_a_0 -0.23897 x_t_4_a_1 -0.20349 x_t_4_a_2 -0.16798 x_t_4_a_4 -0.51490 restored_x_t_4_a_2_9 -0.61160 restored_x_t_4_a_0_2 + f_t_4 >= 0
R0000044:  x_t_4_a_0 + x_t_4_a_1 + x_t_4_a_2 -0.34344 x_t_4_a_3 + restored_x_t_4_a_2_9 + restored_x_t_4_a_0_2 <= 5.86630
R0000044_low: x_t_4_a_0 + x_t_4_a_1 + x_t_4_a_2 -0.34344 x_t_4_a_3 + restored_x_t_4_a_2_9 + restored_x_t_4_a_0_2 >= 0
R0000045:  - restored_x_t_4_a_2_9 + 9.06480 y_9 >= 0
R0000046:  - restored_x_t_4_a_0_2 + 9.06480 y_2 >= 0
R0000047:  -0.34368 x_t_3_a_3 + x_t_3_a_4 -0.86963 restored_x_t_3_a_3_9 + restored_x_t_3_a_4_7 <= 1.28660
R0000047_low: -0.34368 x_t_3_a_3 + x_t_3_a_4 -0.86963 restored_x_t_3_a_3_9 + restored_x_t_3_a_4_7 >= 0
R0000048:  -0.63375 x_t_3_a_0 -0.67119 restored_x_t_3_a_0_0 + f_t_3 <= 14.43446
R0000048_low: -0.63375 x_t_3_a_0 -0.67119 restored_x_t_3_a_0_0 + f_t_3 >= 0
R0000049:  x_t_3_a_1 + x_t_3_a_2 + x_t_3_a_3 + restored_x_t_3_a_3_9 + restored_x_t_3_a_1_2 <= 5.86630
R0000049_low: x_t_3_a_1 + x_t_3_a_2 + x_t_3_a_3 + restored_x_t_3_a_3_9 + restored_x_t_3_a_1_2 >= 0
R0000050:  x_t_3_a_0 -0.13080 x_t_3_a_1 -0.42165 x_t_3_a_2 -0.56464 x_t_3_a_4 + restored_x_t_3_a_0_0 -0.51821 restored_x_t_3_a_1_2 -0.92264 restored_x_t_3_a_4_7 <= 28.59342
R0000050_low: x_t_3_a_0 -0.13080 x_t_3_a_1 -0.42165 x_t_3_a_2 -0.56464 x_t_3_a_4 + restored_x_t_3_a_0_0 -0.51821 restored_x_t_3_a_1_2 -0.92264 restored_x_t_3_a_4_7 >= 0
R0000051:  - restored_x_t_3_a_0_0 + 34.83217 y_0 >= 0
R0000052:  - restored_x_t_3_a_3_9 + 5.92496 y_9 >= 0
R0000053:  - restored_x_t_3_a_1_2 + 5.92496 y_2 >= 0
R0000054:  - restored_x_t_3_a_4_7 + 6.45197 y_7 >= 0
R0000055:  x_t_2_a_2 + restored_x_t_2_a_2_6 <= 26.22161
R0000055_low: x_t_2_a_2 + restored_x_t_2_a_2_6 >= 0
R0000056:  x_t_2_a_0 + x_t_2_a_1 + restored_x_t_2_a_1_8 + restored_x_t_2_a_0_3 <= 7.37164
R0000056_low: x_t_2_a_0 + x_t_2_a_1 + restored_x_t_2_a_1_8 + restored_x_t_2_a_0_3 >= 0
R0000057:  -0.16420 x_t_2_a_0 -0.63359 x_t_2_a_1 -0.73914 x_t_2_a_2 -0.80120 restored_x_t_2_a_1_8 -0.74470 restored_x_t_2_a_2_6 -0.90367 restored_x_t_2_a_0_3 + f_t_2 <= 10.15081
R0000057_low: -0.16420 x_t_2_a_0 -0.63359 x_t_2_a_1 -0.73914 x_t_2_a_2 -0.80120 restored_x_t_2_a_1_8 -0.74470 restored_x_t_2_a_2_6 -0.90367 restored_x_t_2_a_0_3 + f_t_2 >= 0
R0000058:  - restored_x_t_2_a_1_8 + 7.44536 y_8 >= 0
R0000059:  - restored_x_t_2_a_2_6 + 26.48382 y_6 >= 0
R0000060:  - restored_x_t_2_a_0_3 + 7.44536 y_3 >= 0
R0000061:  -0.34368 x_t_1_a_2 + x_t_1_a_3 -0.86963 restored_x_t_1_a_2_9 + restored_x_t_1_a_3_7 <= 1.28660
R0000061_low: -0.34368 x_t_1_a_2 + x_t_1_a_3 -0.86963 restored_x_t_1_a_2_9 + restored_x_t_1_a_3_7 >= 0
R0000062:  x_t_1_a_0 + x_t_1_a_1 + x_t_1_a_2 + restored_x_t_1_a_2_9 + restored_x_t_1_a_0_2 <= 5.86630
R0000062_low: x_t_1_a_0 + x_t_1_a_1 + x_t_1_a_2 + restored_x_t_1_a_2_9 + restored_x_t_1_a_0_2 >= 0
R0000063:  -0.13080 x_t_1_a_0 -0.42165 x_t_1_a_1 -0.56464 x_t_1_a_3 -0.92264 restored_x_t_1_a_3_7 -0.51821 restored_x_t_1_a_0_2 + f_t_1 <= 37.45713
R0000063_low: -0.13080 x_t_1_a_0 -0.42165 x_t_1_a_1 -0.56464 x_t_1_a_3 -0.92264 restored_x_t_1_a_3_7 -0.51821 restored_x_t_1_a_0_2 + f_t_1 >= 0
R0000064:  - restored_x_t_1_a_2_9 + 5.92496 y_9 >= 0
R0000065:  - restored_x_t_1_a_3_7 + 6.45197 y_7 >= 0
R0000066:  - restored_x_t_1_a_0_2 + 5.92496 y_2 >= 0
R0000067:  -0.34368 x_t_0_a_2 + x_t_0_a_3 -0.86963 restored_x_t_0_a_2_9 + restored_x_t_0_a_3_7 <= 1.28660
R0000067_low: -0.34368 x_t_0_a_2 + x_t_0_a_3 -0.86963 restored_x_t_0_a_2_9 + restored_x_t_0_a_3_7 >= 0
R0000068:  x_t_0_a_0 + x_t_0_a_1 + x_t_0_a_2 + restored_x_t_0_a_2_9 + restored_x_t_0_a_0_2 <= 5.86630
R0000068_low: x_t_0_a_0 + x_t_0_a_1 + x_t_0_a_2 + restored_x_t_0_a_2_9 + restored_x_t_0_a_0_2 >= 0
R0000069:  -0.13257 x_t_0_a_0 -0.42735 x_t_0_a_1 -0.57227 x_t_0_a_3 -0.93510 restored_x_t_0_a_3_7 -0.52521 restored_x_t_0_a_0_2 + f_t_0 <= 35.34182
R0000069_low: -0.13257 x_t_0_a_0 -0.42735 x_t_0_a_1 -0.57227 x_t_0_a_3 -0.93510 restored_x_t_0_a_3_7 -0.52521 restored_x_t_0_a_0_2 + f_t_0 >= 0
R0000070:  - restored_x_t_0_a_2_9 + 5.92496 y_9 >= 0
R0000071:  - restored_x_t_0_a_3_7 + 6.45197 y_7 >= 0
R0000072:  - restored_x_t_0_a_0_2 + 5.92496 y_2 >= 0
R0000073:  y_0 + y_1 + y_2 + y_3 + y_4 + y_5 + y_6 + y_7 + y_8 + y_9
 <= 2
R0000073_low: y_0 + y_1 + y_2 + y_3 + y_4 + y_5 + y_6 + y_7 + y_8 + y_9
 >= 0
Bounds
 0 <= y_0 <= 1
 0 <= y_1 <= 1
 0 <= y_2 <= 1
 0 <= y_3 <= 1
 0 <= y_4 <= 1
 0 <= y_5 <= 1
 0 <= y_6 <= 1
 0 <= y_7 <= 1
 0 <= y_8 <= 1
 0 <= y_9 <= 1
Integers
y_0 y_1 y_2 y_3 y_4 y_5 y_6 y_7 y_8 y_9 
End
